solution status: optimal solution found
objective value:                                 4275
roecke                                             23 	(obj:45)
hosen                                             104 	(obj:60)
maschine1                                        1000 	(obj:-1)
maschine2                                        2000 	(obj:-1)
